
Gurobi 10.0.3 (linux64, gurobi_cl) logging started Thu Nov  9 11:49:01 2023

Set parameter Username
Set parameter TimeLimit to value 3600
Set parameter LogFile to value "RCPSP_1212.log"
Set parameter Threads to value 32
Academic license - for non-commercial use only - expires 2024-10-30
Using license file /home/jrivera6/gurobi-licenses/v1003/compute-0-38/gurobi.lic

Gurobi Optimizer version 10.0.3 build v10.0.3rc0 (linux64)
Copyright (c) 2023, Gurobi Optimization, LLC

Read MPS format model from file RCPSP_1212.mps
Reading time = 0.05 seconds
RCPSP_1212: 42947 rows, 17020 columns, 151052 nonzeros

CPU model: Intel(R) Xeon(R) Gold 6242 CPU @ 2.80GHz, instruction set [SSE2|AVX|AVX2|AVX512]
Thread count: 32 physical cores, 32 logical processors, using up to 32 threads

Optimize a model with 42947 rows, 17020 columns and 151052 nonzeros
Model fingerprint: 0x63cad04f
Variable types: 92 continuous, 16928 integer (16928 binary)
Coefficient statistics:
  Matrix range     [1e+00, 5e+02]
  Objective range  [1e+00, 1e+00]
  Bounds range     [1e+00, 1e+00]
  RHS range        [1e+00, 5e+02]
Presolve removed 7845 rows and 2014 columns
Presolve time: 4.00s
Presolved: 35102 rows, 15006 columns, 128961 nonzeros
Variable types: 91 continuous, 14915 integer (14915 binary)

Deterministic concurrent LP optimizer: primal and dual simplex (primal and dual model)
Showing first log only...

Root relaxation presolved: 35102 rows, 15006 columns, 128961 nonzeros


Root simplex log...

Iteration    Objective       Primal Inf.    Dual Inf.      Time
       0    9.2418490e+01   2.227542e-01   2.690811e+08      5s
    2335    8.5000000e+01   0.000000e+00   0.000000e+00      6s
Concurrent spin time: 0.45s

Solved with dual simplex (dual model)

Root relaxation: objective 8.500000e+01, 17068 iterations, 1.95 seconds (0.16 work units)
Total elapsed time = 10.24s

    Nodes    |    Current Node    |     Objective Bounds      |     Work
 Expl Unexpl |  Obj  Depth IntInf | Incumbent    BestBd   Gap | It/Node Time

     0     0   85.00000    0   80          -   85.00000      -     -   11s
     0     0   85.00000    0 1030          -   85.00000      -     -   29s
     0     0   85.00000    0 1028          -   85.00000      -     -   29s
     0     0   85.00000    0 1026          -   85.00000      -     -   30s
     0     0   85.00000    0 1052          -   85.00000      -     -   31s
     0     0   85.00000    0 1051          -   85.00000      -     -   31s
     0     0   85.00000    0 1049          -   85.00000      -     -   31s
     0     0   85.00000    0  113          -   85.00000      -     -   44s
     0     0   85.00000    0  131          -   85.00000      -     -   44s
     0     0   85.00000    0  131          -   85.00000      -     -   45s
     0     0   85.00000    0  195          -   85.00000      -     -   54s
     0     0   85.00000    0  728          -   85.00000      -     -   68s
     0     0   85.00000    0   94          -   85.00000      -     -   75s
     0     0   85.00000    0  302          -   85.00000      -     -   76s
     0     0   85.00000    0  121          -   85.00000      -     -   81s
     0     0   85.00000    0   58          -   85.00000      -     -   83s
     0     2   85.00000    0   40          -   85.00000      -     -  101s
     3     8   85.00000    2   70          -   85.00000      -   635  112s
     7    16   85.00000    3  311          -   85.00000      -   411  119s
    15    28   85.00000    4  359          -   85.00000      -   386  133s
    31    52   85.00000    5  353          -   85.00000      -   399  155s
    59    80   85.00000    6  200          -   85.00000      -   552  169s
    91   105   85.00000    7  178          -   85.00000      -   451  180s
   123   127   85.00000    8  150          -   85.00000      -   379  185s
   155   151   85.00000    9  148          -   85.00000      -   312  190s
   187   181   85.00000   10  148          -   85.00000      -   274  207s
   222   209   85.00000   11  152          -   85.00000      -   387  222s
   256   242   85.00000   12  146          -   85.00000      -   412  227s
   298   275   85.00000   13  487          -   85.00000      -   359  234s
   339   314   85.00000   13  150          -   85.00000      -   323  245s
   381   356   85.00000   15  144          -   85.00000      -   294  260s
   479   515   85.00000   17  122          -   85.00000      -   247  282s
   595   680   85.00000   25  112          -   85.00000      -   217  303s
   771   912   85.00000   30   44          -   85.00000      -   198  328s
  1043  1273   85.00000   31   52          -   85.00000      -   163  354s
  1448  1758   85.00000   44  150          -   85.00000      -   137  383s
  1996  2387   85.00000   51  101          -   85.00000      -   121  416s
  2777  3136   93.00000   22  156          -   85.00000      -   106  455s
  3672  3635   87.00000   57  146          -   85.00000      -   102  618s
H 3828  3239                      98.0000000   85.00000  13.3%   101  618s
  4264  4018   88.00000   75  198   98.00000   85.00000  13.3%   100  680s
H 4265  3909                      97.0000000   85.00000  12.4%   100  680s
H 4321  3386                      95.0000000   85.00000  10.5%  99.0  680s
H 4393  3234                      93.0000000   85.00000  8.60%   100  680s
  5277  3535   88.00000   76  198   93.00000   85.00000  8.60%  95.3  849s
H 5287  3008                      91.0000000   85.00000  6.59%  95.1  849s
H 5570  2530                      90.0000000   85.00000  5.56%  94.3  849s
  5921  2302   85.00000   50   58   90.00000   85.00000  5.56%  93.6  870s
  5924  2304   87.00000   30  141   90.00000   85.00000  5.56%  93.6  877s
  5926  2305   89.00000  173   83   90.00000   85.00000  5.56%  93.5  883s
  5927  2306   89.00000   88  305   90.00000   85.00000  5.56%  93.5  885s
  5929  2307   85.00000   59  307   90.00000   85.00000  5.56%  93.5  891s
  5931  2309   86.00000   22  535   90.00000   85.00000  5.56%  93.4  897s
  5932  2309   85.00000   77   90   90.00000   85.00000  5.56%  93.4  905s
  5934  2311   87.00000   90   59   90.00000   85.00000  5.56%  93.4  913s
  5935  2311   85.00000   52  149   90.00000   85.00000  5.56%  93.4  915s
  5936  2312   88.00000  107   89   90.00000   85.00000  5.56%  93.4  921s
  5939  2317   85.00000   10   79   90.00000   85.00000  5.56%   8.9  938s
  5941  2320   85.00000   11   75   90.00000   85.00000  5.56%   9.0  945s
  5953  2336   85.00000   13  120   90.00000   85.00000  5.56%   9.2  955s
  5968  2350   85.00000   14  124   90.00000   85.00000  5.56%   9.3  964s
  5996  2368   85.00000   15  135   90.00000   85.00000  5.56%   9.5  967s
  6028  2386   85.00000   16  133   90.00000   85.00000  5.56%   9.6 1189s
H 6050  2263                      89.0000000   85.00000  4.49%   9.7 1189s
  6060  2244   85.00000   17  133   89.00000   85.00000  4.49%   9.7 1219s
  6092  2221   85.00000   17  133   89.00000   85.00000  4.49%   9.7 1223s
  6124  2196   85.00000   18  163   89.00000   85.00000  4.49%   9.8 1235s
  6171  2214   85.00000   18  131   89.00000   85.00000  4.49%  10.6 1245s
  6204  2241   85.00000   19  129   89.00000   85.00000  4.49%  11.4 1253s
  6249  2260   85.00000   20  111   89.00000   85.00000  4.49%  11.6 1259s
  6289  2287   86.00000   20  154   89.00000   85.00000  4.49%  11.8 1263s
  6334  2317   85.00000   21  109   89.00000   85.00000  4.49%  12.0 1268s
  6380  2345   85.00000   21  117   89.00000   85.00000  4.49%  12.2 1283s
  6426  2422   85.00000   22  109   89.00000   85.00000  4.49%  13.7 1301s
  6528  2517   85.00000   23  109   89.00000   85.00000  4.49%  15.9 1321s
  6672  2670   85.00000   25  239   89.00000   85.00000  4.49%  17.2 1339s
  6892  2809   85.00000   27  217   89.00000   85.00000  4.49%  18.5 1369s
  7133  2994   85.00000   29   78   89.00000   85.00000  4.49%  21.2 1403s
  7460  3216   85.00000   30   76   89.00000   85.00000  4.49%  22.7 1442s
  7873  3127   85.00000   34  241   89.00000   85.00000  4.49%  24.4 1727s
H 7931  3042                      88.0000000   85.00000  3.41%  24.5 1945s
  7993  3341   85.00000   35  304   88.00000   85.00000  3.41%  24.7 2000s
  8583  3494   85.00000   40   93   88.00000   85.00000  3.41%  31.4 2062s
  9300  3729   85.00000   53   91   88.00000   85.00000  3.41%  36.3 2151s
 10374  4156   87.00000   77  114   88.00000   85.00000  3.41%  38.4 2257s
 11512  4741   87.00000   67  133   88.00000   85.00000  3.41%  42.4 2385s
 12849  5513   87.00000   65  174   88.00000   85.00000  3.41%  45.7 2537s
 14407 10548   85.00000   32  163   88.00000   85.00000  3.41%  49.8 2620s
 22418 16367 infeasible  133        88.00000   85.00000  3.41%  43.9 2689s
 30953 16368   86.00000  116   58   88.00000   85.00000  3.41%  39.5 2717s
 30955 16369   87.00000   78   87   88.00000   85.00000  3.41%  39.5 2722s
 30956 16370   87.00000   99  101   88.00000   85.00000  3.41%  39.5 2727s
 30958 16371   87.00000  120   51   88.00000   85.00000  3.41%  39.5 2732s
 30960 16373   86.00000   76   35   88.00000   85.00000  3.41%  39.5 2737s
 30962 16374   87.00000   97   37   88.00000   85.00000  3.41%  39.5 2741s
 30964 16375   87.00000   41   38   88.00000   85.00000  3.41%  39.5 2745s
 30966 16377   87.00000   64   17   88.00000   85.00000  3.41%  39.5 2751s
 30968 16378   86.00000   83   38   88.00000   85.00000  3.41%  39.5 2757s
 30969 16379   85.00000   57  433   88.00000   85.00000  3.41%  39.5 2760s
 30971 16380   85.00000   60   17   88.00000   85.00000  3.41%  39.5 2766s
 30973 16384   85.00000   21   24   88.00000   85.00000  3.41%  40.9 2779s
 30975 16388   85.00000   22   24   88.00000   85.00000  3.41%  40.9 2781s
 30979 16394   85.00000   23   24   88.00000   85.00000  3.41%  40.9 2786s
 30987 16408   85.00000   24   55   88.00000   85.00000  3.41%  40.9 2792s
 31003 16429   85.00000   25   75   88.00000   85.00000  3.41%  40.9 2805s
 31067 16464   85.00000   27   84   88.00000   85.00000  3.41%  41.0 2812s
 31099 16485   85.00000   27   80   88.00000   85.00000  3.41%  41.0 2816s
 31131 16504   85.00000   28  147   88.00000   85.00000  3.41%  40.9 3172s
 31163 16520   85.00000   28   84   88.00000   85.00000  3.41%  40.9 3599s
 31196 16534   85.00000   29   86   88.00000   85.00000  3.41%  41.4 3604s

Cutting planes:
  Gomory: 21
  Cover: 292
  Implied bound: 71
  Projected implied bound: 3
  Clique: 574
  MIR: 30
  StrongCG: 20
  Flow cover: 138
  GUB cover: 19
  Zero half: 4
  RLT: 15
  Relax-and-lift: 244

Explored 31221 nodes (1913118 simplex iterations) in 3627.24 seconds (170.98 work units)
Thread count was 32 (of 32 available processors)

Solution count 8: 88 89 90 ... 98

Time limit reached
Best objective 8.800000000000e+01, best bound 8.500000000000e+01, gap 3.4091%

Wrote result file 'RCPSP_1212.sol'

